aessim/simplescalar/mytests/benchmarks/papabench/fbw_servo_nav/fbw_servo_nav.ilp
enter Q
Maximize

122 dSta_0 + 38 d0_48 + 74 d48_56 + 40 d56_57 + 1 d56_59 + 45 d57_58 + 1 d57_60 + 1 d58_60 + 2 d59_60 + 2 d60_49 + 4 d49_61 + 7 d61_62 + 1 d61_64 + 10 d62_63 + 1 d62_65 + 1 d63_65 + 2 d64_65 + 36 d65_50 + 42 d50_81 + 4 d81_84 + 7 d84_85 + 1 d84_87 + 10 d85_86 + 1 d85_88 + 1 d86_88 + 2 d87_88 + 39 d88_82 + 4 d82_89 + 7 d89_90 + 1 d89_92 + 10 d90_91 + 1 d90_93 + 1 d91_93 + 2 d92_93 + 38 d93_83 + 7 d83_51 + 2 d83_54 + 4 d51_66 + 7 d66_67 + 1 d66_69 + 10 d67_68 + 1 d67_70 + 1 d68_70 + 2 d69_70 + 4 d70_52 + 4 d52_71 + 7 d71_72 + 1 d71_74 + 10 d72_73 + 1 d72_75 + 1 d73_75 + 2 d74_75 + 3 d75_53 + 2 d53_54 + 7 d53_51 + 4 d54_76 + 7 d76_77 + 1 d76_79 + 10 d77_78 + 1 d77_80 + 1 d78_80 + 2 d79_80 + 39 d80_55 + 2 d55_1 + 76 d55_9 + 4 d1_10 + 7 d10_11 + 1 d10_13 + 10 d11_12 + 1 d11_14 + 1 d12_14 + 2 d13_14 + 2 d14_2 + 4 d2_15 + 7 d15_16 + 1 d15_18 + 10 d16_17 + 1 d16_19 + 1 d17_19 + 2 d18_19 + 1 d19_3 + 7 d3_35 + 4 d35_38 + 7 d38_39 + 1 d38_41 + 10 d39_40 + 1 d39_42 + 1 d40_42 + 2 d41_42 + 4 d42_36 + 4 d36_43 + 7 d43_44 + 1 d43_46 + 10 d44_45 + 1 d44_47 + 1 d45_47 + 2 d46_47 + 3 d47_37 + 7 d37_4 + 2 d37_7 + 4 d4_20 + 7 d20_21 + 1 d20_23 + 10 d21_22 + 1 d21_24 + 1 d22_24 + 2 d23_24 + 4 d24_5 + 4 d5_25 + 7 d25_26 + 1 d25_28 + 10 d26_27 + 1 d26_29 + 1 d27_29 + 2 d28_29 + 3 d29_6 + 2 d6_7 + 7 d6_4 + 4 d7_30 + 7 d30_31 + 1 d30_33 + 10 d31_32 + 1 d31_34 + 1 d32_34 + 2 d33_34 + 3 d34_8 + 76 d8_9 + 2 d8_1


Subject to


\ === tcfg constraints ===
dSta_0 = 1
b0 - d0_48 = 0
b0 - dSta_0 = 0
b1 - d1_10 = 0
b1 - d8_1 - d55_1 = 0
b2 - d2_15 = 0
b2 - d14_2 = 0
b3 - d3_35 = 0
b3 - d19_3 = 0
b4 - d4_20 = 0
b4 - d6_4 - d37_4 = 0
b5 - d5_25 = 0
b5 - d24_5 = 0
b6 - d6_7 - d6_4 = 0
b6 - d29_6 = 0
b7 - d7_30 = 0
b7 - d6_7 - d37_7 = 0
b8 - d8_9 - d8_1 = 0
b8 - d34_8 = 0
b9 - d8_9 - d55_9 = 0
b10 - d10_11 - d10_13 = 0
b10 - d1_10 = 0
b11 - d11_12 - d11_14 = 0
b11 - d10_11 = 0
b12 - d12_14 = 0
b12 - d11_12 = 0
b13 - d13_14 = 0
b13 - d10_13 = 0
b14 - d14_2 = 0
b14 - d11_14 - d12_14 - d13_14 = 0
b15 - d15_16 - d15_18 = 0
b15 - d2_15 = 0
b16 - d16_17 - d16_19 = 0
b16 - d15_16 = 0
b17 - d17_19 = 0
b17 - d16_17 = 0
b18 - d18_19 = 0
b18 - d15_18 = 0
b19 - d19_3 = 0
b19 - d16_19 - d17_19 - d18_19 = 0
b20 - d20_21 - d20_23 = 0
b20 - d4_20 = 0
b21 - d21_22 - d21_24 = 0
b21 - d20_21 = 0
b22 - d22_24 = 0
b22 - d21_22 = 0
b23 - d23_24 = 0
b23 - d20_23 = 0
b24 - d24_5 = 0
b24 - d21_24 - d22_24 - d23_24 = 0
b25 - d25_26 - d25_28 = 0
b25 - d5_25 = 0
b26 - d26_27 - d26_29 = 0
b26 - d25_26 = 0
b27 - d27_29 = 0
b27 - d26_27 = 0
b28 - d28_29 = 0
b28 - d25_28 = 0
b29 - d29_6 = 0
b29 - d26_29 - d27_29 - d28_29 = 0
b30 - d30_31 - d30_33 = 0
b30 - d7_30 = 0
b31 - d31_32 - d31_34 = 0
b31 - d30_31 = 0
b32 - d32_34 = 0
b32 - d31_32 = 0
b33 - d33_34 = 0
b33 - d30_33 = 0
b34 - d34_8 = 0
b34 - d31_34 - d32_34 - d33_34 = 0
b35 - d35_38 = 0
b35 - d3_35 = 0
b36 - d36_43 = 0
b36 - d42_36 = 0
b37 - d37_4 - d37_7 = 0
b37 - d47_37 = 0
b38 - d38_39 - d38_41 = 0
b38 - d35_38 = 0
b39 - d39_40 - d39_42 = 0
b39 - d38_39 = 0
b40 - d40_42 = 0
b40 - d39_40 = 0
b41 - d41_42 = 0
b41 - d38_41 = 0
b42 - d42_36 = 0
b42 - d39_42 - d40_42 - d41_42 = 0
b43 - d43_44 - d43_46 = 0
b43 - d36_43 = 0
b44 - d44_45 - d44_47 = 0
b44 - d43_44 = 0
b45 - d45_47 = 0
b45 - d44_45 = 0
b46 - d46_47 = 0
b46 - d43_46 = 0
b47 - d47_37 = 0
b47 - d44_47 - d45_47 - d46_47 = 0
b48 - d48_56 = 0
b48 - d0_48 = 0
b49 - d49_61 = 0
b49 - d60_49 = 0
b50 - d50_81 = 0
b50 - d65_50 = 0
b51 - d51_66 = 0
b51 - d53_51 - d83_51 = 0
b52 - d52_71 = 0
b52 - d70_52 = 0
b53 - d53_54 - d53_51 = 0
b53 - d75_53 = 0
b54 - d54_76 = 0
b54 - d53_54 - d83_54 = 0
b55 - d55_1 - d55_9 = 0
b55 - d80_55 = 0
b56 - d56_57 - d56_59 = 0
b56 - d48_56 = 0
b57 - d57_58 - d57_60 = 0
b57 - d56_57 = 0
b58 - d58_60 = 0
b58 - d57_58 = 0
b59 - d59_60 = 0
b59 - d56_59 = 0
b60 - d60_49 = 0
b60 - d57_60 - d58_60 - d59_60 = 0
b61 - d61_62 - d61_64 = 0
b61 - d49_61 = 0
b62 - d62_63 - d62_65 = 0
b62 - d61_62 = 0
b63 - d63_65 = 0
b63 - d62_63 = 0
b64 - d64_65 = 0
b64 - d61_64 = 0
b65 - d65_50 = 0
b65 - d62_65 - d63_65 - d64_65 = 0
b66 - d66_67 - d66_69 = 0
b66 - d51_66 = 0
b67 - d67_68 - d67_70 = 0
b67 - d66_67 = 0
b68 - d68_70 = 0
b68 - d67_68 = 0
b69 - d69_70 = 0
b69 - d66_69 = 0
b70 - d70_52 = 0
b70 - d67_70 - d68_70 - d69_70 = 0
b71 - d71_72 - d71_74 = 0
b71 - d52_71 = 0
b72 - d72_73 - d72_75 = 0
b72 - d71_72 = 0
b73 - d73_75 = 0
b73 - d72_73 = 0
b74 - d74_75 = 0
b74 - d71_74 = 0
b75 - d75_53 = 0
b75 - d72_75 - d73_75 - d74_75 = 0
b76 - d76_77 - d76_79 = 0
b76 - d54_76 = 0
b77 - d77_78 - d77_80 = 0
b77 - d76_77 = 0
b78 - d78_80 = 0
b78 - d77_78 = 0
b79 - d79_80 = 0
b79 - d76_79 = 0
b80 - d80_55 = 0
b80 - d77_80 - d78_80 - d79_80 = 0
b81 - d81_84 = 0
b81 - d50_81 = 0
b82 - d82_89 = 0
b82 - d88_82 = 0
b83 - d83_51 - d83_54 = 0
b83 - d93_83 = 0
b84 - d84_85 - d84_87 = 0
b84 - d81_84 = 0
b85 - d85_86 - d85_88 = 0
b85 - d84_85 = 0
b86 - d86_88 = 0
b86 - d85_86 = 0
b87 - d87_88 = 0
b87 - d84_87 = 0
b88 - d88_82 = 0
b88 - d85_88 - d86_88 - d87_88 = 0
b89 - d89_90 - d89_92 = 0
b89 - d82_89 = 0
b90 - d90_91 - d90_93 = 0
b90 - d89_90 = 0
b91 - d91_93 = 0
b91 - d90_91 = 0
b92 - d92_93 = 0
b92 - d89_92 = 0
b93 - d93_83 = 0
b93 - d90_93 - d91_93 - d92_93 = 0

\ === tcfg loop header node bounds  ===
b4 - 9 d37_4 <= 0
b1 <= 999
b51 <= 9

\ === tcfg loop back edge constraints  ===
d6_4 - 8 d37_4 <= 0
d8_1 - 998 d55_1 <= 0
d53_51 - 8 d83_51 <= 0


\ === user constraints (loop bound etc) ===
b89+ b84+ b76+ b71+ b66+ b61+ b56+ b43+ b38+ b30+ b25+ b20+ b15+ b10 = 230
b93+ b88+ b80+ b75+ b70+ b65+ b60+ b47+ b42+ b34+ b29+ b24+ b19+ b14 = 230
b0 = 1
b48+ b1 = 10
b49+ b2 = 10
b50+ b3 = 10
b81+ b51+ b35+ b4 = 100
b82+ b52+ b36+ b5 = 100
b83+ b53+ b37+ b6 = 100
b54+ b7 = 10
b55+ b8 = 10
b9 = 1

Generals

dSta_0
b0
d0_48
b1
d1_10
b2
d2_15
b3
d3_35
b4
d4_20
b5
d5_25
b6
d6_7
d6_4
b7
d7_30
b8
d8_9
d8_1
b9
b10
d10_11
d10_13
b11
d11_12
d11_14
b12
d12_14
b13
d13_14
b14
d14_2
b15
d15_16
d15_18
b16
d16_17
d16_19
b17
d17_19
b18
d18_19
b19
d19_3
b20
d20_21
d20_23
b21
d21_22
d21_24
b22
d22_24
b23
d23_24
b24
d24_5
b25
d25_26
d25_28
b26
d26_27
d26_29
b27
d27_29
b28
d28_29
b29
d29_6
b30
d30_31
d30_33
b31
d31_32
d31_34
b32
d32_34
b33
d33_34
b34
d34_8
b35
d35_38
b36
d36_43
b37
d37_4
d37_7
b38
d38_39
d38_41
b39
d39_40
d39_42
b40
d40_42
b41
d41_42
b42
d42_36
b43
d43_44
d43_46
b44
d44_45
d44_47
b45
d45_47
b46
d46_47
b47
d47_37
b48
d48_56
b49
d49_61
b50
d50_81
b51
d51_66
b52
d52_71
b53
d53_54
d53_51
b54
d54_76
b55
d55_1
d55_9
b56
d56_57
d56_59
b57
d57_58
d57_60
b58
d58_60
b59
d59_60
b60
d60_49
b61
d61_62
d61_64
b62
d62_63
d62_65
b63
d63_65
b64
d64_65
b65
d65_50
b66
d66_67
d66_69
b67
d67_68
d67_70
b68
d68_70
b69
d69_70
b70
d70_52
b71
d71_72
d71_74
b72
d72_73
d72_75
b73
d73_75
b74
d74_75
b75
d75_53
b76
d76_77
d76_79
b77
d77_78
d77_80
b78
d78_80
b79
d79_80
b80
d80_55
b81
d81_84
b82
d82_89
b83
d83_51
d83_54
b84
d84_85
d84_87
b85
d85_86
d85_88
b86
d86_88
b87
d87_88
b88
d88_82
b89
d89_90
d89_92
b90
d90_91
d90_93
b91
d91_93
b92
d92_93
b93
d93_83

End
optimize
set logfile ../benchmarks/papabench/fbw_servo_nav/fbw_servo_nav.sol
display solution objective
display solution variables -
quit
