wrappers/cache_misses_simulator/simplescalar/mytests/benchmarks/papabench/fbw_servo_nav/fbw_servo_nav.out
sim-profile: SimpleScalar/PISA Tool Set version 3.0 of August, 2003.
Copyright (c) 1994-2003 by Todd M. Austin, Ph.D. and SimpleScalar, LLC.
All Rights Reserved. This version of SimpleScalar is licensed for academic
non-commercial use.  No portion of this work may be used by any commercial
entity, or for any commercial purpose, without the prior written permission
of SimpleScalar, LLC (info@simplescalar.com).

sim: command line: /home/sudiptac/sudiptac/Work/simplesim-3.0/sim-profile -pcstat sim_num_insn fbw_servo_nav 

sim: simulation started @ Fri May 11 16:08:15 2012, options follow:

sim-profile: This simulator implements a functional simulator with
profiling support.  Run with the `-h' flag to see profiling options
available.

# -config                     # load configuration from a file
# -dumpconfig                 # dump configuration to a file
# -h                    false # print help message    
# -v                    false # verbose operation     
# -d                    false # enable debug message  
# -i                    false # start in Dlite debugger
-seed                       1 # random number generator seed (0 for timer seed)
# -q                    false # initialize and terminate immediately
# -chkpt               <null> # restore EIO trace execution from <fname>
# -redir:sim           <null> # redirect simulator output to file (non-interactive only)
# -redir:prog          <null> # redirect simulated target_name output to file
-nice                       0 # simulator scheduling priority
-max:inst                   0 # maximum number of inst's to execute
-all                    false # enable all profile options
-iclass                 false # enable instruction class profiling
-iprof                  false # enable instruction profiling
-brprof                 false # enable branch instruction profiling
-amprof                 false # enable address mode profiling
-segprof                false # enable load/store address segment profiling
-tsymprof               false # enable text symbol profiling
-taddrprof              false # enable text address profiling
-dsymprof               false # enable data symbol profiling
-internal               false # include compiler-internal symbols during symbol profiling
# -pcstat        sim_num_insn # profile stat(s) against text addr's (mult uses ok)

sim: ** starting functional simulation **

sim: ** simulation statistics **
sim_num_insn                   8422 # total number of instructions executed
sim_num_refs                   4261 # total number of loads and stores executed
sim_elapsed_time                  1 # total simulation time in seconds
sim_inst_rate             8422.0000 # simulation speed (in insts/sec)

sim_num_insn_by_pc     # total number of instructions executed (by text address)
sim_num_insn_by_pc.count = 810
sim_num_insn_by_pc.total = 8421
sim_num_insn_by_pc.imin = 0x400140
sim_num_insn_by_pc.imax = 0x405770
sim_num_insn_by_pc.average =  10.3963
sim_num_insn_by_pc.std_dev =  51.2674
sim_num_insn_by_pc.overflows = 0
# pdf == prob dist fn, cdf == cumulative dist fn
#          index      count    pdf 
sim_num_insn_by_pc.start_dist
0x400140 1 0.01
0x400148 1 0.01
0x400150 1 0.01
0x400158 1 0.01
0x400160 1 0.01
0x400168 1 0.01
0x400170 1 0.01
0x400178 1 0.01
0x400180 1 0.01
0x400188 1 0.01
0x400190 1 0.01
0x400198 1 0.01
0x4001a0 1 0.01
0x4001a8 1 0.01
0x4001b0 1 0.01
0x4001b8 1 0.01
0x4001c0 1 0.01
0x4001c8 1 0.01
0x4001d0 1 0.01
0x4001d8 1 0.01
0x4001e0 1 0.01
0x4001f0 230 2.73
0x4001f8 230 2.73
0x400200 230 2.73
0x400268 230 2.73
0x400270 230 2.73
0x400278 1 0.01
0x400280 1 0.01
0x400288 1 0.01
0x400290 1 0.01
0x400298 1 0.01
0x4002a0 1 0.01
0x4002a8 1 0.01
0x4002b0 1 0.01
0x4002b8 1 0.01
0x4002c0 10 0.12
0x4002c8 10 0.12
0x4002d0 10 0.12
0x4002d8 10 0.12
0x4002e0 10 0.12
0x4002e8 100 1.19
0x4002f0 100 1.19
0x4002f8 100 1.19
0x400300 100 1.19
0x400308 100 1.19
0x400310 100 1.19
0x400318 100 1.19
0x400320 100 1.19
0x400328 100 1.19
0x400330 100 1.19
0x400338 100 1.19
0x400340 100 1.19
0x400348 10 0.12
0x400350 10 0.12
0x400358 10 0.12
0x400360 10 0.12
0x400368 10 0.12
0x400370 1 0.01
0x400378 1 0.01
0x400380 1 0.01
0x400388 1 0.01
0x400390 1 0.01
0x400398 1 0.01
0x4003a0 1 0.01
0x4003b0 1 0.01
0x4003b8 1 0.01
0x4003c0 1 0.01
0x4003c8 1 0.01
0x4003d0 1 0.01
0x4003d8 1 0.01
0x4003e0 1 0.01
0x4003e8 1 0.01
0x4003f0 1 0.01
0x4003f8 1 0.01
0x400400 1 0.01
0x400408 1 0.01
0x400410 1 0.01
0x400418 1 0.01
0x400420 1 0.01
0x400428 1 0.01
0x400430 1 0.01
0x400438 1 0.01
0x400440 1 0.01
0x400448 1 0.01
0x400450 1 0.01
0x400458 1 0.01
0x400460 1 0.01
0x400510 1 0.01
0x400518 1 0.01
0x400520 1 0.01
0x400528 1 0.01
0x400530 1 0.01
0x400580 1 0.01
0x400588 1 0.01
0x400590 1 0.01
0x400598 1 0.01
0x4005a0 1 0.01
0x4005a8 1 0.01
0x4005b0 1 0.01
0x4005b8 1 0.01
0x4005c0 1 0.01
0x4005c8 1 0.01
0x4005d0 1 0.01
0x4005d8 1 0.01
0x4005e8 1 0.01
0x4005f0 1 0.01
0x4005f8 1 0.01
0x400600 1 0.01
0x400608 1 0.01
0x400820 1 0.01
0x400828 1 0.01
0x400830 1 0.01
0x400838 1 0.01
0x400840 1 0.01
0x400848 1 0.01
0x400850 1 0.01
0x400870 1 0.01
0x400890 1 0.01
0x400898 1 0.01
0x4008a0 1 0.01
0x4008a8 1 0.01
0x4008b0 1 0.01
0x4008b8 1 0.01
0x4008d8 1 0.01
0x4008e0 1 0.01
0x4008e8 1 0.01
0x4008f0 1 0.01
0x400910 1 0.01
0x400918 1 0.01
0x400920 1 0.01
0x400928 1 0.01
0x400930 1 0.01
0x400938 1 0.01
0x400940 1 0.01
0x400948 1 0.01
0x400950 1 0.01
0x400958 1 0.01
0x400960 1 0.01
0x400968 1 0.01
0x400970 1 0.01
0x400978 1 0.01
0x400980 1 0.01
0x400988 1 0.01
0x400990 1 0.01
0x400998 1 0.01
0x4009a0 1 0.01
0x4009a8 1 0.01
0x4009b0 1 0.01
0x4009b8 1 0.01
0x4009c0 1 0.01
0x4009c8 1 0.01
0x4009d8 1 0.01
0x4009e0 1 0.01
0x4009e8 1 0.01
0x4009f0 1 0.01
0x4009f8 1 0.01
0x400a00 1 0.01
0x400a08 1 0.01
0x400a10 1 0.01
0x400a18 1 0.01
0x400a20 1 0.01
0x400a28 1 0.01
0x400a30 1 0.01
0x400a38 1 0.01
0x400a40 1 0.01
0x400a48 1 0.01
0x400a50 1 0.01
0x400a58 1 0.01
0x400a60 1 0.01
0x400a68 1 0.01
0x400a70 1 0.01
0x400a78 1 0.01
0x400a80 1 0.01
0x400a88 1 0.01
0x400a90 1 0.01
0x400a98 1 0.01
0x400aa8 1 0.01
0x400ab0 1 0.01
0x400ab8 1 0.01
0x400ac0 1 0.01
0x400ac8 1 0.01
0x400ad0 1 0.01
0x400ad8 1 0.01
0x400ae0 1 0.01
0x400ae8 1 0.01
0x400af0 1 0.01
0x400af8 1 0.01
0x400b00 1 0.01
0x400b08 1 0.01
0x400b10 1 0.01
0x400b18 1 0.01
0x400b20 1 0.01
0x400b28 1 0.01
0x400b58 1 0.01
0x400b60 1 0.01
0x400b70 1 0.01
0x400b78 1 0.01
0x400b90 1 0.01
0x400b98 1 0.01
0x400ba0 1 0.01
0x400ba8 1 0.01
0x400bb8 1 0.01
0x400bc0 1 0.01
0x400bc8 1 0.01
0x400bd0 1 0.01
0x400bd8 1 0.01
0x400e60 1 0.01
0x400e68 1 0.01
0x400e70 1 0.01
0x400e78 1 0.01
0x400e88 1 0.01
0x400e90 1 0.01
0x400e98 1 0.01
0x400ea0 1 0.01
0x400ea8 1 0.01
0x400eb0 1 0.01
0x400eb8 1 0.01
0x400ec0 1 0.01
0x400ec8 1 0.01
0x400ed0 1 0.01
0x400ed8 1 0.01
0x400ee0 1 0.01
0x400ee8 1 0.01
0x400ef0 1 0.01
0x400ef8 1 0.01
0x400f00 1 0.01
0x400f08 1 0.01
0x400f10 1 0.01
0x400f18 1 0.01
0x400f20 1 0.01
0x400f28 1 0.01
0x400f30 1 0.01
0x400f48 1 0.01
0x400f50 1 0.01
0x400f58 1 0.01
0x400f60 1 0.01
0x400f68 1 0.01
0x400f70 1 0.01
0x400f80 1 0.01
0x400f88 1 0.01
0x401320 1 0.01
0x401328 1 0.01
0x401330 1 0.01
0x401338 1 0.01
0x401340 1 0.01
0x401348 1 0.01
0x401350 1 0.01
0x401358 1 0.01
0x401360 1 0.01
0x401368 1 0.01
0x401370 1 0.01
0x401378 1 0.01
0x401380 1 0.01
0x401388 1 0.01
0x401390 1 0.01
0x401398 1 0.01
0x4013a0 1 0.01
0x4013a8 1 0.01
0x4013b0 1 0.01
0x4013b8 1 0.01
0x4013c0 1 0.01
0x4013c8 1 0.01
0x4013d0 1 0.01
0x4013d8 1 0.01
0x4013e0 1 0.01
0x4013e8 1 0.01
0x4014d0 1 0.01
0x4014d8 1 0.01
0x4014e0 1 0.01
0x4014e8 1 0.01
0x4014f0 1 0.01
0x4014f8 1 0.01
0x401500 1 0.01
0x401510 1 0.01
0x401518 1 0.01
0x401520 1 0.01
0x401528 1 0.01
0x401530 1 0.01
0x401538 1 0.01
0x401540 1 0.01
0x401548 1 0.01
0x401550 1 0.01
0x401558 1 0.01
0x401560 1 0.01
0x401568 1 0.01
0x401570 1 0.01
0x401578 1 0.01
0x401580 1 0.01
0x401588 1 0.01
0x401590 1 0.01
0x401828 1 0.01
0x401830 1 0.01
0x401838 1 0.01
0x401840 1 0.01
0x401848 1 0.01
0x401850 1 0.01
0x401858 1 0.01
0x401860 1 0.01
0x401870 4 0.05
0x401878 4 0.05
0x401880 4 0.05
0x401888 4 0.05
0x401890 4 0.05
0x401898 4 0.05
0x4018a0 4 0.05
0x4018a8 1 0.01
0x4018b0 1 0.01
0x4018b8 1 0.01
0x4018c0 1 0.01
0x4018c8 1 0.01
0x4018d0 1 0.01
0x4018d8 3 0.04
0x4018e0 3 0.04
0x4018f8 3 0.04
0x401900 3 0.04
0x401908 3 0.04
0x401910 3 0.04
0x401918 3 0.04
0x401920 3 0.04
0x401928 1 0.01
0x401930 1 0.01
0x401938 3 0.04
0x401940 3 0.04
0x401948 3 0.04
0x401950 3 0.04
0x401968 3 0.04
0x401970 3 0.04
0x401978 3 0.04
0x401980 3 0.04
0x4019a8 3 0.04
0x4019b0 3 0.04
0x4019b8 3 0.04
0x4019c0 2 0.02
0x4019c8 2 0.02
0x4019d0 2 0.02
0x4019d8 2 0.02
0x4019e0 2 0.02
0x4019f8 3 0.04
0x401a00 3 0.04
0x401a08 1 0.01
0x401a10 1 0.01
0x401a18 1 0.01
0x401a20 1 0.01
0x401a28 3 0.04
0x401a30 3 0.04
0x401a38 2 0.02
0x401a40 2 0.02
0x401a48 2 0.02
0x401a50 2 0.02
0x401a58 1 0.01
0x401a60 1 0.01
0x401a68 1 0.01
0x401a70 1 0.01
0x401a78 1 0.01
0x401a98 1 0.01
0x401aa0 3 0.04
0x401aa8 3 0.04
0x401ab0 3 0.04
0x401ab8 4 0.05
0x401ac0 4 0.05
0x401ac8 4 0.05
0x401ad0 4 0.05
0x401ad8 4 0.05
0x401ae0 4 0.05
0x401b10 1 0.01
0x401b18 1 0.01
0x401b20 1 0.01
0x401b28 1 0.01
0x401b60 1 0.01
0x401b68 1 0.01
0x401b70 1 0.01
0x401b78 1 0.01
0x401b80 1 0.01
0x401b88 1 0.01
0x401b90 4 0.05
0x401b98 4 0.05
0x401ba0 4 0.05
0x401ba8 4 0.05
0x401bb0 4 0.05
0x401bb8 4 0.05
0x401bc0 4 0.05
0x401bc8 4 0.05
0x401bd0 3 0.04
0x401bd8 3 0.04
0x401be0 3 0.04
0x401be8 3 0.04
0x401bf0 3 0.04
0x401bf8 3 0.04
0x401c00 1 0.01
0x401c08 1 0.01
0x401c10 1 0.01
0x401c18 1 0.01
0x401c20 1 0.01
0x401c28 1 0.01
0x401c30 1 0.01
0x401c38 1 0.01
0x401c98 1 0.01
0x401ca0 1 0.01
0x401ca8 1 0.01
0x401cb0 3 0.04
0x401cb8 3 0.04
0x401cc0 3 0.04
0x401cc8 3 0.04
0x401cd0 3 0.04
0x401cd8 3 0.04
0x401ce0 3 0.04
0x401ce8 3 0.04
0x401cf0 3 0.04
0x401cf8 3 0.04
0x401d00 4 0.05
0x401d08 4 0.05
0x401d10 4 0.05
0x401d18 4 0.05
0x401d20 4 0.05
0x401d28 4 0.05
0x401d30 4 0.05
0x401d38 4 0.05
0x401d40 4 0.05
0x401d48 4 0.05
0x401d78 4 0.05
0x401d80 4 0.05
0x401d88 4 0.05
0x401d90 390 4.63
0x401d98 390 4.63
0x401da0 390 4.63
0x401da8 390 4.63
0x401db0 390 4.63
0x401db8 390 4.63
0x401dc0 390 4.63
0x401dc8 390 4.63
0x401dd0 390 4.63
0x401dd8 390 4.63
0x401de0 390 4.63
0x401de8 390 4.63
0x401df0 4 0.05
0x401df8 4 0.05
0x401e00 4 0.05
0x401e08 12 0.14
0x401e10 12 0.14
0x401e18 12 0.14
0x401e20 12 0.14
0x401e28 4 0.05
0x401e30 4 0.05
0x401e58 4 0.05
0x401e60 4 0.05
0x402030 1 0.01
0x402038 1 0.01
0x402040 1 0.01
0x402048 1 0.01
0x402050 1 0.01
0x402058 1 0.01
0x402060 1 0.01
0x402068 1 0.01
0x402070 1 0.01
0x402078 1 0.01
0x402088 1 0.01
0x402090 1 0.01
0x402098 1 0.01
0x4020a0 1 0.01
0x4020a8 1 0.01
0x4020b0 1 0.01
0x4020b8 1 0.01
0x4020c0 1 0.01
0x4020c8 1 0.01
0x4020d0 1 0.01
0x4020d8 1 0.01
0x4020e0 1 0.01
0x4020e8 1 0.01
0x4020f0 1 0.01
0x4020f8 1 0.01
0x402100 1 0.01
0x402108 1 0.01
0x402110 1 0.01
0x402118 1 0.01
0x402120 1 0.01
0x402128 1 0.01
0x402130 1 0.01
0x402138 1 0.01
0x402140 1 0.01
0x402148 1 0.01
0x402198 1 0.01
0x4021a0 1 0.01
0x4021a8 1 0.01
0x4021b0 1 0.01
0x4021b8 1 0.01
0x4021c0 1 0.01
0x4021c8 1 0.01
0x4021e0 1 0.01
0x4021e8 1 0.01
0x4021f0 1 0.01
0x4021f8 1 0.01
0x402200 1 0.01
0x402208 1 0.01
0x402210 1 0.01
0x402218 1 0.01
0x402220 1 0.01
0x402228 1 0.01
0x402230 1 0.01
0x402238 1 0.01
0x402240 1 0.01
0x402290 1 0.01
0x402298 1 0.01
0x4022a0 1 0.01
0x4022a8 1 0.01
0x4022b0 1 0.01
0x4022b8 1 0.01
0x4022c0 1 0.01
0x4022c8 1 0.01
0x4022d0 1 0.01
0x4022d8 1 0.01
0x4022e0 1 0.01
0x4022e8 1 0.01
0x4022f0 1 0.01
0x4022f8 1 0.01
0x402300 1 0.01
0x402308 1 0.01
0x402310 1 0.01
0x402318 1 0.01
0x402320 1 0.01
0x402328 1 0.01
0x402330 1 0.01
0x402338 1 0.01
0x402340 1 0.01
0x402348 1 0.01
0x402350 1 0.01
0x402358 1 0.01
0x402360 1 0.01
0x402368 1 0.01
0x402420 1 0.01
0x402428 1 0.01
0x402430 1 0.01
0x402438 1 0.01
0x402440 1 0.01
0x402590 1 0.01
0x402598 1 0.01
0x4028a8 1 0.01
0x4028b0 1 0.01
0x4028b8 1 0.01
0x4028c0 1 0.01
0x4028c8 1 0.01
0x4028d0 1 0.01
0x4028d8 1 0.01
0x4028e0 1 0.01
0x4028e8 1 0.01
0x4028f0 1 0.01
0x4028f8 1 0.01
0x402900 1 0.01
0x402928 1 0.01
0x402930 1 0.01
0x402960 1 0.01
0x402968 1 0.01
0x402970 1 0.01
0x402978 1 0.01
0x402da8 2 0.02
0x402db0 2 0.02
0x402db8 2 0.02
0x402dc0 2 0.02
0x402dc8 2 0.02
0x402dd0 2 0.02
0x402dd8 2 0.02
0x402de0 2 0.02
0x402de8 2 0.02
0x402df0 2 0.02
0x402df8 2 0.02
0x402e00 2 0.02
0x402e08 2 0.02
0x402e10 2 0.02
0x402e18 2 0.02
0x402e20 2 0.02
0x402e28 2 0.02
0x402e30 2 0.02
0x402e38 2 0.02
0x402e40 2 0.02
0x402e48 2 0.02
0x402e50 2 0.02
0x402e58 2 0.02
0x402e60 2 0.02
0x402e68 2 0.02
0x402e70 2 0.02
0x402e78 2 0.02
0x402e80 2 0.02
0x403038 2 0.02
0x403040 2 0.02
0x403048 1 0.01
0x403050 1 0.01
0x403058 1 0.01
0x403060 1 0.01
0x403068 1 0.01
0x403070 1 0.01
0x403078 1 0.01
0x4030e0 2 0.02
0x4030e8 2 0.02
0x4030f0 2 0.02
0x4030f8 2 0.02
0x403130 2 0.02
0x403138 2 0.02
0x403140 2 0.02
0x403148 2 0.02
0x403150 2 0.02
0x403158 2 0.02
0x403160 2 0.02
0x403168 2 0.02
0x403170 2 0.02
0x403178 2 0.02
0x403180 2 0.02
0x403480 2 0.02
0x403488 2 0.02
0x403490 2 0.02
0x403498 2 0.02
0x4034a0 2 0.02
0x4034a8 2 0.02
0x4034b0 2 0.02
0x4034b8 2 0.02
0x4034c0 2 0.02
0x4034d8 2 0.02
0x4034e0 2 0.02
0x4034e8 2 0.02
0x4034f0 2 0.02
0x4034f8 2 0.02
0x403500 2 0.02
0x403508 2 0.02
0x403510 2 0.02
0x403518 2 0.02
0x403520 2 0.02
0x403528 2 0.02
0x4039c0 2 0.02
0x4039c8 2 0.02
0x4039d0 2 0.02
0x4039d8 2 0.02
0x4039e0 2 0.02
0x4039e8 2 0.02
0x4039f0 2 0.02
0x4039f8 2 0.02
0x403a00 2 0.02
0x403a08 2 0.02
0x403a10 2 0.02
0x403a18 2 0.02
0x403a20 2 0.02
0x403a28 2 0.02
0x403a30 2 0.02
0x403a48 2 0.02
0x403a50 2 0.02
0x403a58 2 0.02
0x403a60 2 0.02
0x403a68 2 0.02
0x403a70 2 0.02
0x403a78 2 0.02
0x403aa0 2 0.02
0x403aa8 2 0.02
0x403ab0 2 0.02
0x403ab8 2 0.02
0x403ac0 2 0.02
0x403af8 2 0.02
0x403b00 2 0.02
0x403b08 2 0.02
0x403b10 2 0.02
0x403b18 2 0.02
0x403b20 2 0.02
0x403b28 2 0.02
0x403b30 2 0.02
0x403b38 2 0.02
0x403b40 2 0.02
0x403b48 2 0.02
0x403b50 2 0.02
0x403b58 2 0.02
0x403b60 2 0.02
0x403b68 2 0.02
0x403b70 2 0.02
0x403b78 2 0.02
0x403b80 2 0.02
0x403b88 2 0.02
0x403b90 2 0.02
0x403b98 2 0.02
0x403ba0 2 0.02
0x403ba8 2 0.02
0x403bb0 2 0.02
0x403bb8 2 0.02
0x403bc0 2 0.02
0x403bc8 2 0.02
0x403bd0 2 0.02
0x403bd8 2 0.02
0x403be0 2 0.02
0x403be8 1 0.01
0x403bf0 1 0.01
0x403c08 1 0.01
0x403c10 1 0.01
0x403c18 1 0.01
0x403c20 1 0.01
0x403c28 1 0.01
0x403c30 1 0.01
0x403c38 1 0.01
0x403c70 1 0.01
0x403c78 1 0.01
0x403c80 1 0.01
0x403ca8 2 0.02
0x403cb0 2 0.02
0x403cb8 2 0.02
0x403cc0 2 0.02
0x403cc8 2 0.02
0x403cd0 2 0.02
0x403cd8 2 0.02
0x403ce0 2 0.02
0x403ce8 2 0.02
0x403d18 2 0.02
0x403de0 2 0.02
0x403de8 2 0.02
0x403df0 2 0.02
0x403e18 2 0.02
0x403e20 2 0.02
0x403e30 2 0.02
0x403e38 2 0.02
0x403e40 2 0.02
0x403e48 2 0.02
0x403e50 2 0.02
0x403e58 2 0.02
0x403e88 2 0.02
0x403e90 2 0.02
0x403e98 2 0.02
0x403ea0 2 0.02
0x403eb8 2 0.02
0x403ec0 2 0.02
0x403ec8 2 0.02
0x403ed0 2 0.02
0x403ed8 2 0.02
0x403ee0 2 0.02
0x403ee8 2 0.02
0x403ef0 2 0.02
0x404488 3 0.04
0x404490 3 0.04
0x404498 3 0.04
0x4044a0 3 0.04
0x4044a8 3 0.04
0x4044b0 3 0.04
0x4044b8 3 0.04
0x4044c0 3 0.04
0x4044c8 3 0.04
0x4044d0 3 0.04
0x4044d8 3 0.04
0x4044e0 3 0.04
0x4044e8 3 0.04
0x4044f0 3 0.04
0x4044f8 3 0.04
0x4046a0 2 0.02
0x4046a8 2 0.02
0x4046b0 2 0.02
0x4046b8 2 0.02
0x4046c0 2 0.02
0x4046c8 2 0.02
0x404b40 3 0.04
0x404b48 3 0.04
0x404b50 3 0.04
0x404b58 3 0.04
0x404b70 3 0.04
0x404b78 3 0.04
0x404b80 3 0.04
0x404b88 3 0.04
0x404b90 3 0.04
0x404b98 3 0.04
0x404ba0 3 0.04
0x404ba8 3 0.04
0x404bb0 3 0.04
0x404bb8 3 0.04
0x404bc0 3 0.04
0x405420 2 0.02
0x405428 2 0.02
0x405430 2 0.02
0x405438 2 0.02
0x405440 2 0.02
0x405448 2 0.02
0x405450 2 0.02
0x405458 2 0.02
0x405460 2 0.02
0x405468 2 0.02
0x405470 2 0.02
0x405478 1 0.01
0x405480 1 0.01
0x405488 1 0.01
0x405490 1 0.01
0x405498 1 0.01
0x4054a0 1 0.01
0x4054a8 1 0.01
0x4054b0 1 0.01
0x4054d8 1 0.01
0x4054e0 1 0.01
0x405520 1 0.01
0x405528 1 0.01
0x405530 2 0.02
0x405538 2 0.02
0x405540 2 0.02
0x405548 2 0.02
0x405550 2 0.02
0x405630 2 0.02
0x405638 2 0.02
0x405640 2 0.02
0x405648 2 0.02
0x405650 2 0.02
0x4056e0 3 0.04
0x4056e8 3 0.04
0x4056f0 3 0.04
0x405700 3 0.04
0x405708 3 0.04
0x405710 3 0.04
0x405718 3 0.04
0x405720 3 0.04
0x405728 3 0.04
0x405750 1 0.01
0x405758 1 0.01
0x405760 1 0.01
0x405768 1 0.01
0x405770 1 0.01
sim_num_insn_by_pc.end_dist

ld_text_base             0x00400000 # target_name text (code) segment base
ld_text_size                  22704 # target_name text (code) size in bytes
ld_data_base             0x10000000 # target_name initialized data segment base
ld_data_size                   4096 # target_name init'ed `.data' and uninit'ed `.bss' size in bytes
ld_stack_base            0x7fffc000 # target_name stack segment base (highest address in stack)
ld_stack_size                 16384 # target_name initial stack size
ld_prog_entry            0x00400140 # target_name entry point (initial PC)
ld_environ_base          0x7fff8000 # target_name environment base address address
ld_target_big_endian              0 # target executable endian-ness, non-zero if big endian
mem.page_count                   12 # total number of pages allocated
mem.page_mem                    48k # total size of memory pages allocated
mem.ptab_misses                  12 # total first level page table misses
mem.ptab_accesses            186036 # total page table accesses
mem.ptab_miss_rate           0.0001 # first level page table miss rate

+--------------------------------------------------------------+
| effective code range:         [0, fffffff8]                  |
| effective bpred count:        0                              |
| effective sim cycles:         0                              |
| effective bpred misses:       0                              |
| effective icache misses:      0                              |
+--------------------------------------------------------------+

